benchmarks_CP/INST_36x36/30/inst36x36_30_16.dzn
S=6;
start=[|
35,	-1,	28,	-1,	-1,	-1,	-1,	-1,	13,	18,	6,	14,	-1,	11,	-1,	15,	-1,	-1,	-1,	33,	-1,	29,	3,	10,	-1,	-1,	-1,	-1,	-1,	27,	-1,	-1,	20,	-1,	-1,	-1|
-1,	30,	-1,	-1,	31,	-1,	4,	-1,	28,	-1,	-1,	-1,	7,	-1,	3,	17,	20,	34,	-1,	18,	-1,	-1,	-1,	-1,	-1,	-1,	-1,	-1,	-1,	-1,	-1,	-1,	-1,	19,	-1,	2|
-1,	-1,	8,	-1,	-1,	14,	-1,	21,	-1,	-1,	-1,	-1,	-1,	-1,	13,	-1,	27,	30,	12,	-1,	-1,	-1,	-1,	-1,	35,	-1,	-1,	-1,	31,	15,	10,	-1,	24,	-1,	-1,	-1|
21,	-1,	-1,	-1,	-1,	-1,	17,	-1,	-1,	-1,	8,	-1,	10,	-1,	-1,	-1,	-1,	-1,	-1,	-1,	6,	-1,	-1,	-1,	-1,	5,	-1,	-1,	-1,	-1,	-1,	-1,	14,	-1,	-1,	-1|
-1,	-1,	-1,	27,	-1,	-1,	-1,	-1,	23,	-1,	9,	-1,	12,	-1,	32,	-1,	-1,	21,	-1,	-1,	-1,	35,	-1,	-1,	-1,	26,	18,	-1,	-1,	-1,	-1,	-1,	-1,	-1,	-1,	-1|
22,	13,	-1,	-1,	-1,	-1,	-1,	-1,	-1,	11,	-1,	5,	-1,	-1,	-1,	-1,	18,	23,	-1,	-1,	7,	-1,	-1,	-1,	-1,	-1,	-1,	4,	-1,	10,	33,	-1,	-1,	-1,	8,	15|
-1,	36,	-1,	-1,	-1,	-1,	-1,	-1,	-1,	-1,	-1,	-1,	11,	-1,	-1,	-1,	-1,	-1,	-1,	1,	-1,	-1,	20,	-1,	18,	17,	-1,	-1,	-1,	-1,	-1,	28,	-1,	35,	-1,	-1|
-1,	-1,	24,	-1,	-1,	-1,	-1,	15,	-1,	-1,	-1,	1,	35,	-1,	29,	-1,	-1,	-1,	-1,	-1,	-1,	-1,	28,	-1,	13,	25,	-1,	-1,	14,	34,	-1,	-1,	18,	-1,	19,	-1|
-1,	33,	-1,	-1,	-1,	15,	-1,	10,	-1,	-1,	-1,	-1,	-1,	-1,	30,	-1,	-1,	-1,	36,	-1,	-1,	-1,	18,	-1,	24,	-1,	1,	-1,	-1,	-1,	-1,	-1,	-1,	25,	26,	-1|
-1,	25,	-1,	-1,	-1,	-1,	29,	-1,	-1,	23,	36,	9,	20,	12,	17,	3,	-1,	-1,	-1,	-1,	-1,	14,	26,	5,	-1,	-1,	11,	-1,	-1,	-1,	6,	-1,	-1,	-1,	-1,	-1|
-1,	-1,	3,	30,	-1,	-1,	-1,	-1,	-1,	-1,	-1,	-1,	31,	-1,	-1,	9,	-1,	-1,	19,	-1,	-1,	16,	17,	-1,	-1,	35,	-1,	-1,	-1,	-1,	-1,	-1,	-1,	-1,	-1,	14|
9,	23,	27,	14,	-1,	-1,	-1,	-1,	-1,	-1,	-1,	-1,	24,	-1,	-1,	5,	-1,	-1,	6,	25,	-1,	-1,	-1,	-1,	-1,	-1,	-1,	-1,	-1,	-1,	-1,	-1,	29,	-1,	12,	-1|
-1,	-1,	-1,	9,	35,	-1,	-1,	24,	-1,	-1,	-1,	17,	-1,	-1,	-1,	-1,	-1,	-1,	33,	-1,	-1,	-1,	-1,	26,	-1,	-1,	19,	-1,	-1,	30,	-1,	-1,	8,	27,	-1,	-1|
8,	-1,	-1,	-1,	-1,	-1,	7,	13,	-1,	-1,	-1,	23,	-1,	-1,	-1,	-1,	-1,	-1,	27,	-1,	-1,	-1,	-1,	-1,	-1,	-1,	34,	-1,	-1,	-1,	-1,	25,	-1,	12,	-1,	-1|
-1,	-1,	-1,	-1,	3,	-1,	-1,	18,	-1,	-1,	5,	-1,	6,	2,	-1,	-1,	-1,	-1,	-1,	-1,	24,	-1,	-1,	-1,	1,	-1,	-1,	13,	-1,	-1,	-1,	-1,	-1,	34,	-1,	29|
-1,	34,	-1,	33,	-1,	-1,	-1,	3,	10,	30,	-1,	31,	15,	-1,	-1,	-1,	-1,	11,	29,	16,	-1,	-1,	-1,	-1,	27,	-1,	-1,	-1,	-1,	28,	26,	-1,	-1,	-1,	-1,	-1|
13,	-1,	21,	-1,	-1,	-1,	-1,	34,	-1,	27,	12,	32,	14,	-1,	-1,	20,	7,	-1,	11,	-1,	18,	-1,	8,	19,	4,	9,	-1,	-1,	6,	2,	24,	-1,	-1,	-1,	-1,	-1|
18,	-1,	-1,	-1,	-1,	-1,	-1,	-1,	-1,	26,	-1,	21,	-1,	3,	-1,	23,	-1,	13,	-1,	30,	-1,	17,	-1,	6,	-1,	22,	35,	-1,	-1,	-1,	9,	-1,	32,	-1,	-1,	4|
-1,	-1,	-1,	-1,	-1,	-1,	-1,	-1,	-1,	32,	-1,	-1,	-1,	16,	15,	22,	-1,	-1,	-1,	-1,	-1,	7,	-1,	-1,	25,	-1,	-1,	-1,	-1,	-1,	-1,	24,	3,	10,	-1,	-1|
-1,	-1,	20,	-1,	-1,	-1,	-1,	22,	18,	-1,	-1,	-1,	-1,	32,	25,	-1,	-1,	7,	-1,	28,	17,	24,	-1,	-1,	-1,	-1,	-1,	21,	-1,	-1,	19,	-1,	-1,	2,	-1,	-1|
3,	-1,	-1,	-1,	-1,	-1,	-1,	35,	6,	-1,	-1,	-1,	-1,	28,	-1,	-1,	-1,	-1,	-1,	-1,	16,	-1,	-1,	31,	-1,	-1,	-1,	34,	-1,	4,	-1,	-1,	25,	-1,	-1,	-1|
27,	-1,	11,	-1,	-1,	-1,	-1,	-1,	14,	-1,	-1,	-1,	-1,	-1,	36,	-1,	10,	12,	-1,	15,	4,	-1,	-1,	-1,	-1,	-1,	-1,	-1,	-1,	35,	-1,	-1,	-1,	33,	6,	16|
-1,	-1,	-1,	16,	-1,	-1,	-1,	-1,	-1,	19,	4,	-1,	29,	-1,	-1,	-1,	3,	-1,	-1,	-1,	-1,	10,	-1,	-1,	-1,	-1,	8,	-1,	23,	-1,	-1,	-1,	-1,	20,	-1,	35|
25,	-1,	-1,	-1,	-1,	-1,	31,	26,	-1,	-1,	24,	-1,	-1,	4,	-1,	-1,	-1,	-1,	20,	11,	-1,	-1,	30,	27,	-1,	-1,	-1,	-1,	-1,	-1,	-1,	17,	-1,	14,	5,	-1|
10,	-1,	-1,	-1,	-1,	27,	-1,	-1,	31,	36,	-1,	8,	-1,	-1,	-1,	-1,	13,	35,	34,	-1,	15,	12,	-1,	-1,	-1,	-1,	24,	26,	-1,	-1,	29,	30,	-1,	-1,	-1,	-1|
28,	-1,	-1,	-1,	-1,	-1,	-1,	29,	-1,	-1,	35,	-1,	21,	-1,	-1,	-1,	16,	-1,	-1,	-1,	-1,	31,	-1,	-1,	-1,	-1,	-1,	20,	-1,	-1,	-1,	13,	-1,	26,	-1,	-1|
-1,	-1,	13,	-1,	-1,	-1,	-1,	32,	15,	-1,	-1,	-1,	-1,	-1,	-1,	29,	12,	-1,	7,	-1,	1,	-1,	-1,	20,	-1,	8,	4,	-1,	-1,	-1,	-1,	19,	-1,	28,	36,	-1|
-1,	-1,	-1,	15,	-1,	-1,	-1,	14,	-1,	-1,	-1,	-1,	-1,	-1,	-1,	-1,	-1,	5,	-1,	26,	29,	-1,	10,	-1,	-1,	-1,	-1,	-1,	-1,	-1,	20,	-1,	1,	-1,	25,	-1|
30,	-1,	-1,	-1,	-1,	25,	-1,	11,	-1,	-1,	-1,	-1,	-1,	-1,	18,	10,	-1,	-1,	-1,	-1,	-1,	-1,	-1,	-1,	-1,	-1,	-1,	-1,	-1,	-1,	22,	-1,	23,	-1,	33,	-1|
-1,	-1,	-1,	-1,	-1,	-1,	-1,	-1,	-1,	22,	-1,	-1,	-1,	-1,	20,	6,	-1,	-1,	13,	-1,	-1,	-1,	-1,	-1,	23,	1,	33,	-1,	-1,	-1,	18,	-1,	-1,	31,	-1,	-1|
34,	31,	25,	-1,	-1,	-1,	26,	6,	-1,	-1,	-1,	7,	-1,	-1,	19,	-1,	35,	-1,	-1,	-1,	-1,	-1,	36,	-1,	12,	-1,	-1,	-1,	9,	1,	-1,	-1,	-1,	-1,	17,	-1|
-1,	-1,	-1,	5,	-1,	-1,	-1,	-1,	25,	-1,	-1,	-1,	-1,	-1,	-1,	36,	-1,	-1,	-1,	3,	-1,	-1,	-1,	-1,	-1,	-1,	-1,	6,	-1,	-1,	-1,	35,	-1,	-1,	-1,	-1|
12,	-1,	-1,	26,	-1,	-1,	-1,	-1,	-1,	28,	-1,	-1,	-1,	-1,	7,	-1,	25,	24,	-1,	-1,	-1,	-1,	5,	23,	-1,	20,	32,	-1,	-1,	-1,	-1,	-1,	-1,	-1,	31,	-1|
-1,	-1,	23,	-1,	-1,	18,	36,	-1,	-1,	-1,	-1,	-1,	33,	6,	12,	16,	-1,	-1,	26,	-1,	-1,	-1,	-1,	-1,	-1,	-1,	-1,	28,	-1,	-1,	-1,	-1,	10,	-1,	-1,	-1|
-1,	16,	-1,	-1,	-1,	28,	-1,	-1,	-1,	-1,	-1,	19,	-1,	-1,	-1,	-1,	-1,	10,	4,	-1,	-1,	-1,	12,	-1,	31,	-1,	-1,	29,	30,	18,	-1,	-1,	-1,	24,	-1,	-1|
24,	-1,	-1,	-1,	-1,	-1,	-1,	-1,	22,	-1,	-1,	-1,	-1,	-1,	-1,	21,	-1,	3,	-1,	-1,	-1,	32,	-1,	-1,	5,	-1,	-1,	-1,	-1,	-1,	-1,	-1,	-1,	13,	4,	8|];
